
Gurobi 9.1.1 (win64) logging started Sun Mar 13 19:18:42 2022

Changed value of parameter LogFile to ./Log/Direct_MIP_Return_solver_600_order_40_batch.log
   Prev:   Default: 
Gurobi Optimizer version 9.1.1 build v9.1.1rc0 (win64)
Thread count: 6 physical cores, 12 logical processors, using up to 12 threads
Optimize a model with 144480 rows, 107840 columns and 390280 nonzeros
Model fingerprint: 0xcc577150
Variable types: 1920 continuous, 105920 integer (105920 binary)
Coefficient statistics:
  Matrix range     [1e+00, 3e+01]
  Objective range  [4e-01, 1e+00]
  Bounds range     [1e+00, 4e+01]
  RHS range        [1e+00, 2e+01]
Found heuristic solution: objective 9847.2000000
Presolve removed 68600 rows and 66760 columns
Presolve time: 0.90s
Presolved: 75880 rows, 41080 columns, 328880 nonzeros
Variable types: 0 continuous, 41080 integer (39240 binary)

Deterministic concurrent LP optimizer: primal and dual simplex (primal and dual model)
Showing first log only...

Presolve removed 13880 rows and 13640 columns
Presolved: 62000 rows, 27440 columns, 277840 nonzeros


Root simplex log...

Iteration    Objective       Primal Inf.    Dual Inf.      Time
   12809    7.1347070e+03   0.000000e+00   7.796306e+06      5s
   16149    6.3660688e+03   0.000000e+00   7.212023e+06     10s
   18609    5.9397065e+03   0.000000e+00   1.748648e+06     15s
   20589    5.5659837e+03   0.000000e+00   6.329420e+06     20s
   22539    5.2884376e+03   0.000000e+00   7.207749e+06     25s
   24309    5.0483049e+03   0.000000e+00   5.708989e+07     30s
   25949    4.8519328e+03   0.000000e+00   6.386533e+06     35s
   27349    4.7098371e+03   0.000000e+00   2.058730e+06     40s
   29009    4.5280135e+03   0.000000e+00   2.968075e+06     45s
   30489    4.3411509e+03   0.000000e+00   2.199530e+07     50s
   31909    4.1874960e+03   0.000000e+00   1.527465e+06     55s
   33379    4.0410045e+03   0.000000e+00   1.210715e+06     60s
   34909    3.9382409e+03   0.000000e+00   5.823199e+05     65s
   36369    3.8395372e+03   0.000000e+00   3.491493e+05     70s
   37649    3.7555082e+03   0.000000e+00   1.991026e+06     75s
   39089    3.6714719e+03   0.000000e+00   5.600617e+05     80s
   40389    3.5862266e+03   0.000000e+00   4.463511e+05     85s
   41349    3.5315215e+03   0.000000e+00   1.561860e+06     90s
   42309    3.4791224e+03   0.000000e+00   2.010023e+06     95s
   43429    3.4235386e+03   0.000000e+00   2.008945e+06    100s
   44249    3.3789898e+03   0.000000e+00   3.638257e+06    105s
   45089    3.2958067e+03   0.000000e+00   2.976831e+06    111s
   45639    3.2454640e+03   0.000000e+00   6.297619e+06    115s
   46479    3.1599064e+03   0.000000e+00   1.045198e+08    121s
   47079    3.1157015e+03   0.000000e+00   1.343488e+07    125s
   47969    3.0534670e+03   0.000000e+00   4.228663e+06    130s
   48749    2.9973220e+03   0.000000e+00   1.614099e+06    135s
   49649    2.9438842e+03   0.000000e+00   1.035566e+06    140s
   50279    2.9108509e+03   0.000000e+00   1.041995e+07    145s
   51119    2.8675451e+03   0.000000e+00   3.927283e+06    150s
   52099    2.8157764e+03   0.000000e+00   2.688781e+06    155s
   52939    2.7796035e+03   0.000000e+00   1.657410e+07    160s
   53779    2.7493986e+03   0.000000e+00   9.188508e+05    165s
   54619    2.7216813e+03   0.000000e+00   5.799746e+06    170s
   55479    2.6947379e+03   0.000000e+00   7.243833e+06    175s
   56349    2.6720100e+03   0.000000e+00   2.347351e+06    180s
   57139    2.6501815e+03   0.000000e+00   1.671917e+07    185s
   57859    2.6317765e+03   0.000000e+00   1.119696e+06    191s
   58699    2.6130996e+03   0.000000e+00   1.291834e+06    196s
   59409    2.5960108e+03   0.000000e+00   3.306561e+06    200s
   60299    2.5746808e+03   0.000000e+00   2.209773e+06    206s
   61089    2.5527151e+03   0.000000e+00   1.019553e+06    210s
   61889    2.5340193e+03   0.000000e+00   8.035023e+05    215s
   62849    2.5153162e+03   0.000000e+00   2.962681e+06    221s
   63649    2.4995907e+03   0.000000e+00   2.323857e+06    226s
   64449    2.4849153e+03   0.000000e+00   9.032822e+06    230s
   65249    2.4689818e+03   0.000000e+00   4.967428e+06    236s
   66049    2.4529930e+03   0.000000e+00   2.599274e+06    241s
   66849    2.4388797e+03   0.000000e+00   5.103205e+06    245s
   67649    2.4258044e+03   0.000000e+00   3.432113e+06    250s
   68449    2.4139045e+03   0.000000e+00   1.836180e+06    256s
   69089    2.4044968e+03   0.000000e+00   2.294282e+05    260s
   69889    2.3920393e+03   0.000000e+00   2.950089e+05    265s
   70739    2.3790362e+03   0.000000e+00   6.593738e+05    271s
   71459    2.3700307e+03   0.000000e+00   4.767689e+05    275s
   72169    2.3605350e+03   0.000000e+00   7.787255e+05    280s
   73019    2.3521436e+03   0.000000e+00   9.562338e+05    286s
   73699    2.3439213e+03   0.000000e+00   1.106678e+06    290s
   74409    2.3353791e+03   0.000000e+00   8.944261e+06    295s


Root relaxation: time limit, 75096 iterations, 299.05 seconds

    Nodes    |    Current Node    |     Objective Bounds      |     Work
 Expl Unexpl |  Obj  Depth IntInf | Incumbent    BestBd   Gap | It/Node Time

     0     0          -    0      9847.20000 1439.60000  85.4%     -  300s

Explored 0 nodes (75096 simplex iterations) in 300.04 seconds
Thread count was 12 (of 12 available processors)

Solution count 1: 9847.2 

Time limit reached
Best objective 9.847200000000e+03, best bound 1.439600000000e+03, gap 85.3806%

Gurobi 9.5.1 (win64) logging started Mon Apr 18 22:09:33 2022

Set parameter LogFile to value "./Log/Direct_MIP_Return_solver_600_order_40_batch.log"
Gurobi Optimizer version 9.5.1 build v9.5.1rc2 (win64)
Thread count: 6 physical cores, 12 logical processors, using up to 12 threads
Optimize a model with 104480 rows, 67840 columns and 377640 nonzeros
Model fingerprint: 0x30d9aa40
Variable types: 1920 continuous, 65920 integer (65920 binary)
Coefficient statistics:
  Matrix range     [1e+00, 3e+01]
  Objective range  [4e-01, 1e+00]
  Bounds range     [1e+00, 4e+01]
  RHS range        [1e+00, 2e+01]
Found heuristic solution: objective 9654.0000000
Presolve removed 24960 rows and 22400 columns
Presolve time: 0.83s
Presolved: 79520 rows, 45440 columns, 345960 nonzeros
Variable types: 0 continuous, 45440 integer (43640 binary)

Deterministic concurrent LP optimizer: primal and dual simplex (primal and dual model)
Showing first log only...

Root relaxation presolve removed 18240 rows and 18040 columns
Root relaxation presolved: 61280 rows, 27400 columns, 276160 nonzeros


Use crossover to convert LP symmetric solution to basic solution...
Concurrent spin time: 0.02s

Solved with primal simplex (primal model)

Root relaxation: objective 2.073200e+03, 23326 iterations, 2.71 seconds (2.52 work units)

    Nodes    |    Current Node    |     Objective Bounds      |     Work
 Expl Unexpl |  Obj  Depth IntInf | Incumbent    BestBd   Gap | It/Node Time

     0     0 2073.20000    0 37998 9654.00000 2073.20000  78.5%     -   11s
H    0     0                    8502.0000000 2073.20000  75.6%     -   11s
     0     0 2073.20000    0 39395 8502.00000 2073.20000  75.6%     -  453s
H    0     0                    8276.4000000 2073.20000  75.0%     -  456s
     0     0          -    0      8276.40000 2073.20000  75.0%     - 1000s

Cutting planes:
  Cover: 4196
  Clique: 38
  MIR: 5
  StrongCG: 1
  Zero half: 23
  RLT: 617
  Relax-and-lift: 3357
  PSD: 4

Explored 1 nodes (318179 simplex iterations) in 1000.01 seconds (2824.93 work units)
Thread count was 12 (of 12 available processors)

Solution count 3: 8276.4 8502 9654 

Time limit reached
Best objective 8.276400000000e+03, best bound 2.073200000000e+03, gap 74.9505%

Gurobi 9.5.1 (win64) logging started Mon May 23 23:55:44 2022

Set parameter LogFile to value "./Log/Direct_MIP_Return_solver_600_order_40_batch.log"
Gurobi Optimizer version 9.5.1 build v9.5.1rc2 (win64)
Thread count: 6 physical cores, 12 logical processors, using up to 12 threads
Optimize a model with 116480 rows, 72640 columns and 417160 nonzeros
Model fingerprint: 0xa2a8e59a
Variable types: 1920 continuous, 70720 integer (70720 binary)
Coefficient statistics:
  Matrix range     [1e+00, 4e+01]
  Objective range  [4e-01, 1e+00]
  Bounds range     [1e+00, 4e+01]
  RHS range        [1e+00, 2e+01]
Found heuristic solution: objective 10416.400000
Presolve removed 27960 rows and 25120 columns
Presolve time: 0.93s
Presolved: 88520 rows, 47520 columns, 380880 nonzeros
Variable types: 0 continuous, 47520 integer (45680 binary)

Deterministic concurrent LP optimizer: primal and dual simplex (primal and dual model)
Showing first log only...

Root relaxation presolve removed 20400 rows and 20120 columns
Root relaxation presolved: 68120 rows, 27400 columns, 301120 nonzeros


Use crossover to convert LP symmetric solution to basic solution...
Concurrent spin time: 0.03s

Solved with primal simplex (primal model)

Root relaxation: objective 2.131600e+03, 23364 iterations, 3.23 seconds (3.16 work units)

    Nodes    |    Current Node    |     Objective Bounds      |     Work
 Expl Unexpl |  Obj  Depth IntInf | Incumbent    BestBd   Gap | It/Node Time

     0     0 2131.60000    0 39892 10416.4000 2131.60000  79.5%     -   12s
H    0     0                    9602.8000000 2131.60000  77.8%     -   13s
H    0     0                    9490.0000000 2131.60000  77.5%     -   13s
     0     0          -    0      9490.00000 2131.60000  77.5%     - 1000s

Cutting planes:
  Cover: 2405
  Clique: 31
  MIR: 13
  Zero half: 72
  RLT: 362
  Relax-and-lift: 1406

Explored 1 nodes (297380 simplex iterations) in 1000.01 seconds (2936.68 work units)
Thread count was 12 (of 12 available processors)

Solution count 3: 9490 9602.8 10416.4 

Time limit reached
Best objective 9.490000000000e+03, best bound 2.131600000000e+03, gap 77.5385%

Gurobi 9.5.1 (win64) logging started Tue May 24 00:12:29 2022

Set parameter LogFile to value "./Log/Direct_MIP_Return_solver_600_order_40_batch.log"
Gurobi Optimizer version 9.5.1 build v9.5.1rc2 (win64)
Thread count: 6 physical cores, 12 logical processors, using up to 12 threads
Optimize a model with 116480 rows, 72640 columns and 416040 nonzeros
Model fingerprint: 0xbe94e8aa
Variable types: 1920 continuous, 70720 integer (70720 binary)
Coefficient statistics:
  Matrix range     [1e+00, 3e+01]
  Objective range  [4e-01, 1e+00]
  Bounds range     [1e+00, 4e+01]
  RHS range        [1e+00, 2e+01]
Found heuristic solution: objective 10601.600000
Presolve removed 27600 rows and 24320 columns
Presolve time: 0.95s
Presolved: 88880 rows, 48320 columns, 380960 nonzeros
Variable types: 0 continuous, 48320 integer (46480 binary)

Deterministic concurrent LP optimizer: primal and dual simplex (primal and dual model)
Showing first log only...

Root relaxation presolve removed 21200 rows and 20920 columns
Root relaxation presolved: 67680 rows, 27400 columns, 300880 nonzeros


Use crossover to convert LP symmetric solution to basic solution...
Concurrent spin time: 0.04s

Solved with primal simplex (primal model)

Root relaxation: objective 2.114800e+03, 23288 iterations, 3.22 seconds (3.21 work units)

    Nodes    |    Current Node    |     Objective Bounds      |     Work
 Expl Unexpl |  Obj  Depth IntInf | Incumbent    BestBd   Gap | It/Node Time

     0     0 2114.80000    0 40511 10601.6000 2114.80000  80.1%     -   15s
H    0     0                    9245.2000000 2114.80000  77.1%     -   15s
     0     0 2114.80000    0 41673 9245.20000 2114.80000  77.1%     -  480s
H    0     0                    9155.2000000 2114.80000  76.9%     -  482s
     0     0          -    0      9155.20000 2114.80000  76.9%     - 1000s

Cutting planes:
  Cover: 4594
  Clique: 61
  MIR: 12
  Zero half: 57
  RLT: 584
  Relax-and-lift: 2442
  PSD: 3

Explored 1 nodes (291983 simplex iterations) in 1000.01 seconds (2780.01 work units)
Thread count was 12 (of 12 available processors)

Solution count 3: 9155.2 9245.2 10601.6 

Time limit reached
Best objective 9.155200000000e+03, best bound 2.114800000000e+03, gap 76.9006%

Gurobi 9.5.1 (win64) logging started Tue May 24 00:29:14 2022

Set parameter LogFile to value "./Log/Direct_MIP_Return_solver_600_order_40_batch.log"
Gurobi Optimizer version 9.5.1 build v9.5.1rc2 (win64)
Thread count: 6 physical cores, 12 logical processors, using up to 12 threads
Optimize a model with 116480 rows, 72640 columns and 416200 nonzeros
Model fingerprint: 0xdc498958
Variable types: 1920 continuous, 70720 integer (70720 binary)
Coefficient statistics:
  Matrix range     [1e+00, 2e+01]
  Objective range  [4e-01, 1e+00]
  Bounds range     [1e+00, 4e+01]
  RHS range        [1e+00, 2e+01]
Found heuristic solution: objective 9830.0000000
Presolve removed 27960 rows and 24840 columns
Presolve time: 0.93s
Presolved: 88520 rows, 47800 columns, 380720 nonzeros
Variable types: 0 continuous, 47800 integer (45960 binary)

Deterministic concurrent LP optimizer: primal and dual simplex (primal and dual model)
Showing first log only...

Root relaxation presolve removed 20600 rows and 20360 columns
Root relaxation presolved: 67920 rows, 27440 columns, 301760 nonzeros


Use crossover to convert LP symmetric solution to basic solution...
Concurrent spin time: 0.01s

Solved with primal simplex (primal model)

Root relaxation: objective 2.112000e+03, 23364 iterations, 3.39 seconds (3.52 work units)

    Nodes    |    Current Node    |     Objective Bounds      |     Work
 Expl Unexpl |  Obj  Depth IntInf | Incumbent    BestBd   Gap | It/Node Time

     0     0 2112.00000    0 39781 9830.00000 2112.00000  78.5%     -   13s
H    0     0                    9119.6000000 2112.00000  76.8%     -   13s
H    0     0                    8698.4000000 2112.00000  75.7%     -   13s
     0     0 2112.00000    0 41220 8698.40000 2112.00000  75.7%     -  608s
H    0     0                    8459.6000000 2112.00000  75.0%     -  610s
     0     0          -    0      8459.60000 2112.00000  75.0%     - 1000s

Cutting planes:
  Cover: 4856
  Clique: 48
  MIR: 15
  Zero half: 51
  RLT: 495
  Relax-and-lift: 2889
  PSD: 4

Explored 1 nodes (290885 simplex iterations) in 1000.01 seconds (2772.09 work units)
Thread count was 12 (of 12 available processors)

Solution count 4: 8459.6 8698.4 9119.6 9830 

Time limit reached
Best objective 8.459600000000e+03, best bound 2.112000000000e+03, gap 75.0343%

Gurobi 9.5.1 (win64) logging started Tue May 24 00:45:59 2022

Set parameter LogFile to value "./Log/Direct_MIP_Return_solver_600_order_40_batch.log"
Gurobi Optimizer version 9.5.1 build v9.5.1rc2 (win64)
Thread count: 6 physical cores, 12 logical processors, using up to 12 threads
Optimize a model with 116480 rows, 72640 columns and 414880 nonzeros
Model fingerprint: 0xaecd08ab
Variable types: 1920 continuous, 70720 integer (70720 binary)
Coefficient statistics:
  Matrix range     [1e+00, 2e+01]
  Objective range  [4e-01, 1e+00]
  Bounds range     [1e+00, 4e+01]
  RHS range        [1e+00, 2e+01]
Found heuristic solution: objective 9980.4000000
Presolve removed 29400 rows and 25680 columns
Presolve time: 0.93s
Presolved: 87080 rows, 46960 columns, 376800 nonzeros
Variable types: 0 continuous, 46960 integer (45120 binary)

Deterministic concurrent LP optimizer: primal and dual simplex (primal and dual model)
Showing first log only...

Root relaxation presolve removed 19840 rows and 19560 columns
Root relaxation presolved: 67240 rows, 27400 columns, 298720 nonzeros


Use crossover to convert LP symmetric solution to basic solution...
Concurrent spin time: 0.00s

Solved with primal simplex (primal model)

Root relaxation: objective 2.103600e+03, 23250 iterations, 3.07 seconds (3.44 work units)

    Nodes    |    Current Node    |     Objective Bounds      |     Work
 Expl Unexpl |  Obj  Depth IntInf | Incumbent    BestBd   Gap | It/Node Time

     0     0 2103.60000    0 38796 9980.40000 2103.60000  78.9%     -   12s
H    0     0                    9111.2000000 2103.60000  76.9%     -   13s
     0     0 2103.60000    0 40300 9111.20000 2103.60000  76.9%     -  577s
H    0     0                    8985.6000000 2103.60000  76.6%     -  579s
     0     0          -    0      8985.60000 2103.60000  76.6%     - 1000s

Cutting planes:
  Cover: 4632
  Clique: 81
  MIR: 30
  Zero half: 36
  RLT: 420
  Relax-and-lift: 3500
  PSD: 26

Explored 1 nodes (294330 simplex iterations) in 1000.02 seconds (2817.12 work units)
Thread count was 12 (of 12 available processors)

Solution count 3: 8985.6 9111.2 9980.4 

Time limit reached
Best objective 8.985600000000e+03, best bound 2.103600000000e+03, gap 76.5892%
